
  22   10
  10   10   10   10   10   10   10   10   10   10

   0   0   0   0   0   0   0   0   0   0   0   5 2 3 5 8 9 
   9   0   0   0   0   0   0   0   0   0  10   5 13 11 10 7 6 
   6   0   0   0   0   0  10   0   0   0   0   4 13 11 10 4 
   9   0  10   0   0   0   0   0   0   0   0   3 20 19 6 
   3   0   0   0   0   0   0   0   0  10   0   1 6 
  10  10   0   0   0   0   0   0   0   0   0   4 21 17 15 12 
  10   0   0   0   0   0   0   0   0  10   0   4 20 19 17 12 
  10   0   0   0   0   0   0   0   0  10   0   4 21 20 17 12 
   1   0   0   0   0   0   0  10   0   0   0   5 20 19 17 16 14 
  10   0   0   0  10   0   0   0   0   0   0   3 19 17 12 
   7   0   0   0   0   0   0  10   0   0   0   3 20 17 16 
   1   0   0   0   0   0   0   0  10   0   0   2 16 14 
   3   0   0   0  10   0   0   0   0   0   0   2 19 17 
   9   0   0   0   0   0   0   0   0   0  10   1 18 
   7  10   0   0   0   0   0   0   0   0   0   1 16 
   1   0   0   0   0   0   0   0  10   0   0   1 22
   5  10   0   0   0   0   0   0   0   0   0   1 22
   1   0   0   0   0   0   0  10   0   0   0   1 22
   7   0  10   0   0   0   0   0   0   0   0   1 22
   6   0   0  10   0   0   0   0   0   0   0   1 22
   4  10   0   0   0   0   0   0   0   0   0   1 22
   0   0   0   0   0   0   0   0   0   0   0   0 
